gil262_1
0 137 94 175 169 69 226 143 236 237 50 114 27 255 5 125 78 115 187 257 52 213 174 71 148 238 144 104 4 60 199 168 192 251 196 204 98 161 259 224 4 190 239 170 32 121 109 129 208 110 252 57 75 1 116 198 112 154 214 166 120 256 157 127 31 197 84 12 61 141 203 149 210 85 124 202 15 37 258 1 49 234 97 193 183 181 18 28 158 261 182 126 232 162 2 14 229 48 77 218 195 70 133 201 165 21 25 22 54 209 180 5 68 254 55 235 76 81 189 74 249 51 231 79 36 29 90 5 23 247 253 113 242 38 260 118 101 179 160 95 66 30 219 91 12 0